50, 658
2, 7
15, 20
24, 29
40, 45
6, 11
24, 29
3, 8
8, 13
25, 30
17, 22
31, 36
25, 30
34, 39
39, 44
12, 17
34, 39
13, 18
36, 41
19, 24
32, 37
36, 41
1, 6
12, 17
50, 55
13, 18
38, 43
40, 45
39, 44
28, 33
34, 39
6, 11
44, 49
42, 47
20, 25
40, 45
47, 52
2, 7
47, 52
47, 52
39, 44
5, 10
21, 26
15, 20
20, 25
32, 37
19, 24
28, 33
27, 32
45, 50
40, 45
